9174
9174
9174
9174
9174
9040
9040
9040
9040
9040
9040
9012
9012
9012
9012
9012
9012
9012
9012
9012
9012
9012
8551
8551
8551
8551
8551
8551
8551
8551
8551
8551
8551
8551
8551
8551
8551
8551
8551
8551
8551
8551
8551
8551
8551
8551
8551
8551
8551
8551
8551
8551
8551
8551
8551
8551
8551
8551
8551
8551
8551
8551
8551
8551
8551
8551
8551
8551
8551
8551
8551
8551
8551
8551
8475
8475
8475
8475
8475
8475
8475
8475
8475
8475
8470
8470
8470
8470
8470
8470
8470
8470
8470
8470
8470
8470
8470
8470
8470
8470
8470
8470
8470
8470
8470
8470
8470
8470
8470
8470
8470
8470
8470
8470
8470
8470
8470
8470
8470
8470
8470
8470
8470
8470
8470
8470
8470
8470
8470
8470
8470
8470
8470
8470
8470
8470
8470
8470
8470
8470
8470
8470
8470
8470
8470
8470
8470
8470
8470
8470
8470
8470
8470
8470
8470
8470
8470
8470
8470
8470
8470
8470
8470
8470
8470
8470
8470
8470
8470
8470
8470
8470
8470
8470
8470
8470
8470
8470
8470
8470
8470
8470
8470
8470
8470
8470
8470
8470
8470
8470
8470
8470
8470
8470
8470
8470
8470
8470
8470
8470
8470
8470
8470
8470
8470
8470
8470
8470
8470
8470
8470
8470
8470
8470
8470
8470
8470
8470
8470
8470
8470
8470
8470
8470
8470
8470
8470
8470
8470
8470
8470
8470
8470
8470
8470
8470
8470
8470
8470
8470
8470
8470
8470
8470
8470
8470
8470
8470
8470
8470
8470
8470
8470
8470
8470
8470
8470
8470
8470
8470
8470
8470
8470
8470
8470
8470
8479
8479
8479
8479
8479
8479
8479
8479
8479
8479
8479
8479
8479
8479
8479
8479
8479
8479
8479
8479
8479
8479
8479
8452
8452
8452
8452
8452
8452
8452
8452
8452
8452
8452
8452
8452
8452
8452
8452
8452
8452
8452
8452
8452
8452
8452
8452
8452
8452
8452
8452
8452
8452
8452
8452
8452
8452
8452
8452
8452
8452
8452
8452
8452
8452
8452
8452
8452
8452
8452
8452
8452
8452
8452
8452
8452
8452
8452
8452
8452
8452
8452
8452
8452
8452
8452
8452
8452
8452
8452
8452
8452
8452
8452
8930
8930
8475
8475
8475
8475
8475
8475
8475
8475
8475
8475
8475
8475
8475
8475
8475
8475
8475
8475
8475
8475
8475
8423
8423
8423
8423
8423
8423
8423
8423
8423
8423
8423
8423
8423
8423
8423
8423
8423
8423
8423
8423
8423
8423
8423
8423
8423
8423
8423
8423
8423
8423
8423
8423
8423
8423
8423
8423
8423
8423
8442
8442
8442
8442
8442
8442
8437
8437
8437
8437
8437
8437
8437
8437
8437
8437
8437
8437
8437
8437
8437
8437
8437
8437
8437
8437
8437
8437
8437
8437
8437
8437
8437
8437
8437
8437
8437
8437
8437
8437
8437
8437
8437
8437
8437
8437
8437
8437
8437
8437
8437
8437
8437
8437
8437
8437
8437
8437
8437
8437
8437
8437
8437
8437
8437
8437
8437
8437
8437
8437
8437
8437
8437
8437
8437
8437
8437
8437
8437
8437
8437
8437
8437
8437
8437
8437
8437
8437
8437
8437
8437
8437
8437
8437
8437
8437
8437
8437
8437
8437
8437
8437
8437
8437
8437
8437
8437
8437
8437
8437
8437
8437
8437
8437
8437
8437
8437
8437
8437
8437
8437
8437
8437
8437
8437
8437
8437
8437
8437
8437
8437
8437
8437
8437
8437
8437
8437
8437
8437
8437
8437
8437
8437
8437
8437
8437
8437
8437
8437
8437
8437
8437
8437
8437
8437
8437
8437
8437
8437
8437
8437
8437
8437
8437
8437
8437
8437
8437
8437
8437
8437
8437
8437
8437
8437
8437
8437
8437
8437
8437
8437
8437
8437
8437
8437
8437
8437
8437
8437
8437
8437
8437
8437
8437
8437
8437
8437
8437
8437
8437
8437
8437
8437
8437
8437
8437
8437
8437
8437
8437
8437
8437
8437
8437
8437
8437
8437
8437
8437
8437
8437
8437
8437
8437
8437
8437
8437
8437
8437
8437
8437
8437
8437
8437
8437
8437
8437
8437
8437
8437
8437
8437
8437
8437
8437
8437
8437
8437
8437
8437
8437
8437
8437
8437
8437
8547
8547
8547
8547
8547
8547
8547
8547
8547
8547
8547
8547
8547
8547
8547
8547
8547
8547
8547
8547
8547
8547
8547
8547
8547
8547
8547
8547
8547
8547
8547
8547
8547
8547
8547
8547
8547
8547
8547
8547
8547
8547
8547
8547
8547
8547
8547
8547
8547
8547
8547
8547
8547
8547
8547
8547
8547
8547
8547
8547
8547
8547
8547
8547
8547
8547
8547
8547
8547
8547
8547
8547
8547
8547
8547
8547
8547
8547
8547
8547
8547
8547
8547
8547
8547
8547
8547
8547
8547
8547
8547
8547
8547
8547
8547
8547
8547
8547
8547
8547
8547
8547
8547
8547
8547
8547
8547
8547
8547
8547
8547
8547
8547
8547
8547
8547
8547
8547
8547
8547
8547
8547
8547
8547
8547
8547
8547
8547
8547
8547
8547
8547
8547
8547
8547
8547
8547
8547
8547
8547
8547
8547
8547
8547
8547
8547
8547
8547
8547
8547
8547
8547
8547
8547
8547
8547
8547
8667
8667
8667
8667
8667
8667
8667
8667
8667
8667
8667
8667
8667
8667
8667
8667
8667
8667
8667
8667
8667
8667
8667
8667
8667
8667
8667
8667
8667
8667
8667
8667
8667
8667
8667
8667
8667
8667
8667
8667
8667
8667
8667
8667
8667
8667
8667
8667
8667
8667
8667
8667
8667
8667
8667
8667
8667
8667
8667
8667
8667
8667
8667
8667
8667
8667
8667
8667
8667
8667
8667
8667
8667
8667
8667
8667
8667
8667
8667
8667
8667
8667
8667
8667
8667
8667
8667
8667
8667
8667
8667
8667
8667
8667
8667
8667
8667
8667
8667
8667
8667
8667
8667
8667
8667
8667
8667
8667
8667
8667
8667
8667
8667
8667
8667
8667
8667
8667
8667
8667
8667
8667
8667
8667
8667
8667
8667
8667
8667
8667
8667
8667
8667
8667
10005
10005
9201
9201
9201
9201
9201
9201
9201
9201
9201
9201
9201
9196
9196
9196
9280
9280
9233
9233
8764
8764
8764
8764
8764
8764
8764
8764
8764
8764
8764
8764
8764
8764
8764
8764
8764
8764
8764
8764
8764
8615
8615
8615
8615
8615
8615
8615
8615
8615
8615
8615
8243
8243
8243
8243
8243
8243
8243
8243
8243
8243
8243
8243
8243
8243
8243
8243
8243
8243
8243
8243
8243
8243
8243
8243
8243
8243
8243
8243
8243
8243
8243
8243
8243
8243
8243
8243
8243
8243
8243
8243
8243
8243
8243
8243
8243
8243
8243
8243
8243
8243
8243
8243
8243
8243
8243
8243
8243
8243
8243
8243
8243
8243
8243
8243
8243
8243
8243
8243
8243
8243
8243
8243
8243
8243
8243
8243
8243
8243
8243
8243
8243
8243
8243
8243
8243
8243
8243
8243
8243
8243
8243
8243
8243
8243
8243
8243
8243
8243
8243
8243
8243
8243
8243
8243
8243
8243
8243
8243
8243
8243
8243
8243
8243
8243
8243
8243
8243
8243
8243
8243
8243
8243
8243
8243
8243
8243
8243
8243
8243
8243
8243
8243
8243
8243
8243
8243
8243
8243
8243
8243
8243
8243
8243
8243
8243
8243
8243
8243
8243
8243
8243
8243
8243
8243
8243
8243
8243
8243
8243
8243
8243
8243
8243
8243
8243
8243
8243
8243
8243
8243
8243
8243
8243
8243
8243
8243
8243
8243
8243
8243
8243
8243
8243
8243
8243
8243
8243
8243
8243
8243
8243
8243
8243
8243
8243
8243
8243
8243
8243
8243
8243
8243
8243
8243
8243
8243
8243
8243
8243
8243
8243
8677
8714
8714
8714
8714
8714
8714
8714
8714
8714
8714
8714
8714
8714
8714
8714
8714
8714
8714
8714
8714
8714
8714
8714
8714
8714
8714
8714
8714
8714
8714
8714
8714
8714
8714
8714
8714
8714
8714
8714
8714
8714
8714
8714
8714
8714
8714
8714
8714
8714
8714
8714
8714
8788
8788
8788
8788
8788
8788
8788
8788
8788
8788
8788
8788
8788
8788
8788
8788
8788
8129
8129
8129
8129
8129
8129
8129
8129
8129
8129
8129
8129
8129
8129
8129
8129
8129
8129
8129
8129
8129
8129
8129
8129
8129
8129
8129
8129
8129
8129
8129
8129
8129
8129
8129
8129
8129
8129
8129
8129
8129
8129
8129
8129
8129
8129
8129
8129
8129
8129
8129
8129
8129
8129
8129
8129
8129
8129
8129
8129
8129
8129
8129
8129
8129
8129
8129
8129
8129
8129
8129
8129
8129
8129
8129
8129
8129
8129
8129
8129
8129
8129
8129
8129
8129
8129
8129
8129
8129
8129
8129
8129
8129
8129
8129
8129
8129
8129
8129
8129
8129
8129
8129
8129
8129
8129
8129
8129
8129
8129
8129
8129
8129
8129
8129
8129
8129
8129
8129
8129
8129
8129
10009
10005
10005
9814
10005
10005
10005
8800
8800
8800
8802
8802
8802
8802
8802
8802
8802
8802
8802
8802
8802
8802
8802
8802
8802
8802
8802
9145
9145
9145
9145
9145
9145
9145
9145
9145
9145
8512
8512
8512
8512
8512
8512
8512
8512
8512
8423
8423
8423
8423
8423
8423
8423
8423
8423
8423
8423
8423
8423
8423
8423
8423
8423
8423
8423
8423
8423
8423
8423
8423
8423
8423
8423
8423
8423
8423
8423
8423
8423
8423
8423
8423
8423
8423
8423
8423
8423
8423
8423
8423
8423
8423
8423
8423
8423
8423
8423
8423
8423
8423
8423
8423
8423
8423
8423
8423
8423
8423
8423
8423
8696
8696
8696
8696
8696
8696
8696
8696
8696
8696
8696
8696
8696
8696
8696
8696
8696
8696
8696
8696
8696
8696
8696
8696
8696
8696
8696
8696
8696
8696
8696
8696
8696
8696
8696
8696
8696
8696
8696
8696
8696
8696
8696
8696
8696
8696
8696
8696
8696
8696
8696
8696
8696
8696
8696
8696
8696
8696
8696
8696
8696
8423
8423
8423
8423
8423
8423
8423
8423
8423
8423
8423
8423
8423
8423
8423
8423
8423
8423
8423
8423
8423
8423
8423
8423
8423
8423
8423
8423
8423
8423
8423
8423
8423
8423
8423
8423
8423
8423
8423
8423
8423
8423
8423
8423
8423
8423
8423
8423
8423
8423
8423
8423
8423
8423
8423
8423
8423
8423
8423
8423
8423
8423
8423
8423
8423
8423
8423
8423
8423
8423
8423
8423
8423
8423
8442
8442
8442
8442
8442
8442
10009
10009
9182
9182
9182
9182
9182
9182
9162
9162
9162
9162
9162
9162
9162
9162
9162
9162
9162
9081
9081
9081
9081
9081
9081
9081
9081
9081
9081
9081
9081
9081
8529
8529
8529
8529
8529
8529
8529
8529
8529
8529
8529
8529
8529
8529
8529
8529
8529
8529
8529
8529
8529
8529
8529
8529
8529
8529
8529
8529
8529
8529
8296
8296
8296
8296
8296
10009
8770
8770
8770
8770
8770
8770
8770
8770
8770
8770
8770
8770
8770
8770
8580
8580
8580
8580
8580
8580
8580
10009
10005
9643
9643
9643
9643
9548
9226
9226
9226
9226
8489
8489
8489
8489
8489
8489
8489
8489
8489
8489
8489
8489
8489
8489
8489
8489
8489
8489
8489
8489
8489
8489
8489
8489
8489
8489
8489
8489
8489
8489
8489
8489
8489
8489
8489
8489
8489
8489
8489
8489
8525
8525
8525
8525
8525
8525
8525
8525
8525
8525
8525
8525
8525
8525
8525
8525
8525
8525
8525
10009
9490
9490
9398
9398
9398
9398
9398
9398
9398
10009
9040
9040
9040
9040
9040
9040
9040
9040
9040
9040
9040
9116
8756
8756
8756
8756
8756
8756
8756
10005
10005
8923
8923
8923
8437
8437
8437
8437
8437
8437
8437
8437
8437
8437
8437
8437
8437
8437
8437
8437
8437
8437
8437
8437
8437
8437
8437
8437
8437
10005
10005
9534
9534
9534
9325
9325
10005
10009
10009
10009
10013
9292
9292
9341
9341
9341
9341
9341
9341
9216
9216
9216
9216
9216
9216
9216
9216
8511
8511
8511
8511
8511
8511
8511
8511
8511
8511
8511
8511
8511
8511
8511
8511
8511
8511
8511
8511
8511
8511
8511
8511
8511
8511
8511
8511
8511
8511
8511
8511
8450
8450
8450
8450
8450
8450
8450
8450
8450
8450
8450
8450
8450
8450
8450
8450
8450
8450
8450
10009
10013
10005
9425
9191
10005
9055
9055
9055
10009
10005
8948
8948
8948
8948
8948
8948
8948
8450
8450
8450
8450
8450
8450
8450
8450
8450
10013
